ilp_joint/output/mitosis_ilp.lp
Maximize
  0.4431749435847059 Z_571_1_0 + 0.0188127979038785 Z_571_1_1
   + 0.0174362638077602 Z_571_1_2 + 0.2631111469491828 Z_571_1_3
   + 0.1574648477544726 Z_571_1_4 + 0.0342013152528543 Z_571_2_0
   + 0.0110168964369931 Z_571_2_1 + 0.0169412161349737 Z_571_2_2
   + 0.5771526536701339 Z_571_2_3 + 0.2606879185050449 Z_571_2_4
   + 0.0023043791191798 Z_571_0_0 + 0.00247317056592941 Z_571_0_1
   + 0.7394429190361589 Z_571_0_2 + 0.00515569516113348 Z_571_0_3
   + 0.1506238361175986 Z_571_0_4 + 0.1621894499285321 Z_669_7_0
   + 0.094432571080257 Z_669_7_1 + 0.00519731895668668 Z_669_7_2
   + 0.298259269986182 Z_669_7_3 + 0.3399213900483422 Z_669_7_4
   + 0.3129912079564314 Z_669_6_0 + 0.0587630111526304 Z_669_6_1
   + 0.00203224878490717 Z_669_6_2 + 0.4497835775277793 Z_669_6_3
   + 0.0764299545782517 Z_669_6_4 + 0.1621894499285321 Z_669_1_0
   + 0.094432571080257 Z_669_1_1 + 0.00519731895668668 Z_669_1_2
   + 0.298259269986182 Z_669_1_3 + 0.3399213900483422 Z_669_1_4
   + 0.0548325470221587 Z_669_0_0 + 0.00720844743169221 Z_669_0_1
   + 0.0880863608212607 Z_669_0_2 + 0.0584299932607332 Z_669_0_3
   + 0.6914426514641553 Z_669_0_4 + 0.1621894499285321 Z_669_4_0
   + 0.094432571080257 Z_669_4_1 + 0.00519731895668668 Z_669_4_2
   + 0.298259269986182 Z_669_4_3 + 0.3399213900483422 Z_669_4_4
   + 0.012048256976018 Z_669_2_0 + 0.0243768115863957 Z_669_2_1
   + 0.1278456104291322 Z_669_2_2 + 0.015651191066488 Z_669_2_3
   + 0.7200781299419661 Z_669_2_4 + 0.00389511324982305 Z_669_8_0
   + 0.00147252085837264 Z_669_8_1 + 0.3622102746836993 Z_669_8_2
   + 0.00602733209906526 Z_669_8_3 + 0.5263947591090397 Z_669_8_4
   + 0.1621894499285321 Z_669_9_0 + 0.094432571080257 Z_669_9_1
   + 0.00519731895668668 Z_669_9_2 + 0.298259269986182 Z_669_9_3
   + 0.3399213900483422 Z_669_9_4 + 0.012048256976018 Z_669_5_0
   + 0.0243768115863957 Z_669_5_1 + 0.1278456104291322 Z_669_5_2
   + 0.015651191066488 Z_669_5_3 + 0.7200781299419661 Z_669_5_4
   + 0.00101404222225039 Z_669_3_0 + 6.0512261753974778e-04 Z_669_3_1
   + 0.8486279162175485 Z_669_3_2 + 0.00272278042270447 Z_669_3_3
   + 0.0470301385199569 Z_669_3_4 + 0.4867984989583077 Z_25_1_0
   + 0.0522570833464987 Z_25_1_1 + 0.00296459591588769 Z_25_1_2
   + 0.2947971132106022 Z_25_1_3 + 0.0631827085687038 Z_25_1_4
   + 0.0023043791191798 Z_25_0_0 + 0.00247317056592941 Z_25_0_1
   + 0.7394429190361589 Z_25_0_2 + 0.00515569516113348 Z_25_0_3
   + 0.1506238361175986 Z_25_0_4 + 0.0167663788844213 Z_25_2_0
   + 0.00774027259057947 Z_25_2_1 + 0.00698446614069257 Z_25_2_2
   + 0.6148960807979873 Z_25_2_3 + 0.2536128015863193 Z_25_2_4
   + 0.8044894081574796 Z_413_1_0 + 0.0120251576538812 Z_413_1_1
   + 0.00411264442873992 Z_413_1_2 + 0.019796653639636 Z_413_1_3
   + 0.0595761361202633 Z_413_1_4 + 0.00214245 Z_413_2_0
   + 0.00231609565746089 Z_413_2_1 + 0.8288245675629747 Z_413_2_2
   + 0.00583810508981912 Z_413_2_3 + 0.0608787817231435 Z_413_2_4
   + 0.0123284793026493 Z_413_0_0 + 0.0448010373661528 Z_413_0_1
   + 0.00215489389181082 Z_413_0_2 + 0.7372473938056736 Z_413_0_3
   + 0.1034681956337135 Z_413_0_4 + 0.4867984989583077 Z_428_3_0
   + 0.0522570833464987 Z_428_3_1 + 0.00296459591588769 Z_428_3_2
   + 0.2947971132106022 Z_428_3_3 + 0.0631827085687038 Z_428_3_4
   + 0.00631007888488231 Z_428_0_0 + 0.00762194749004815 Z_428_0_1
   + 0.3771288700573854 Z_428_0_2 + 0.0909330490901704 Z_428_0_3
   + 0.4180060544775138 Z_428_0_4 + 0.0023043791191798 Z_428_2_0
   + 0.00247317056592941 Z_428_2_1 + 0.7394429190361589 Z_428_2_2
   + 0.00515569516113348 Z_428_2_3 + 0.1506238361175986 Z_428_2_4
   + 0.0516531011713315 Z_428_6_0 + 0.4500114381009537 Z_428_6_1
   + 0.0399624772564764 Z_428_6_2 + 0.1320343308492635 Z_428_6_3
   + 0.2263386526219751 Z_428_6_4 + 3.2528137308629593e-04 Z_428_1_0
   + 0.0066812457564056 Z_428_1_1 + 0.8093371824141034 Z_428_1_2
   + 0.00307700665608924 Z_428_1_3 + 0.0805792838003156 Z_428_1_4
   + 0.0274819935096633 Z_428_7_0 + 0.0142312214782711 Z_428_7_1
   + 5.6434058069657078e-04 Z_428_7_2 + 0.6510089691093407 Z_428_7_3
   + 0.2067134753220285 Z_428_7_4 + 0.0274819935096633 Z_428_4_0
   + 0.0142312214782711 Z_428_4_1 + 5.6434058069657078e-04 Z_428_4_2
   + 0.6510089691093407 Z_428_4_3 + 0.2067134753220285 Z_428_4_4
   + 0.0334465410644881 Z_428_5_0 + 0.0111145409027956 Z_428_5_1
   + 0.1155733150464629 Z_428_5_2 + 0.0131056140885082 Z_428_5_3
   + 0.7267599888977453 Z_428_5_4 + 0.00237717658808667 Z_712_0_0
   + 6.1240117230302162e-04 Z_712_0_1 + 0.7223596616994266 Z_712_0_2
   + 0.00300994220952746 Z_712_0_3 + 0.1716408183306564 Z_712_0_4
   + 0.000332069 Z_399_0_0 + 0.00102146572006904 Z_399_0_1
   + 0.06260535329882 Z_399_0_2 + 0.8061341968443142 Z_399_0_3
   + 0.0299069152205113 Z_399_0_4 + 4.2115770078271985e-04 Z_46_1_0
   + 0.00208863558228758 Z_46_1_1 + 0.7335191324814897 Z_46_1_2
   + 0.0118061660615354 Z_46_1_3 + 0.1521649081739047 Z_46_1_4
   + 0.7059709524289822 Z_514_0_0 + 0.0313749046314797 Z_514_0_1
   + 0.0120583717821997 Z_514_0_2 + 0.0522113313473829 Z_514_0_3
   + 0.0983844398099554 Z_514_0_4 + 5.4547374945835929e-04 Z_514_1_0
   + 7.1748869508481193e-04 Z_514_1_1 + 0.669710136689844 Z_514_1_2
   + 0.00115043607872983 Z_514_1_3 + 0.2278764647868832 Z_514_1_4
   + 2.5506535487443329e-04 Z_288_0_0 + 0.00191952477224267 Z_288_0_1
   + 0.1392331303693496 Z_288_0_2 + 0.7202100629329119 Z_288_0_3
   + 0.0383822165706214 Z_288_0_4 + 1.0133634550385455e-04 Z_462_0_0
   + 0.00150767969648119 Z_462_0_1 + 0.0662038867102495 Z_462_0_2
   + 0.778818059093328 Z_462_0_3 + 0.0533690381544375 Z_462_0_4
   + 6.42137e-05 Z_122_0_0 + 0.00274128632447714 Z_122_0_1
   + 0.8070994483890296 Z_122_0_2 + 8.0593014036388561e-04 Z_122_0_3
   + 0.0892891214263625 Z_122_0_4 + 0.0226700346983294 Z_368_0_0
   + 0.02776584956374 Z_368_0_1 + 0.0143780978305831 Z_368_0_2
   + 0.1165597433805324 Z_368_0_3 + 0.718626274526815 Z_368_0_4
   + 0.000332069 Z_77_0_0 + 0.00102146572006904 Z_77_0_1
   + 0.06260535329882 Z_77_0_2 + 0.8061341968443142 Z_77_0_3
   + 0.0299069152205113 Z_77_0_4 + 0.00247323064712999 Z_169_0_0
   + 9.5572763808993589e-04 Z_169_0_1 + 0.0519394040545782 Z_169_0_2
   + 0.7470240718319308 Z_169_0_3 + 0.0976075658282713 Z_169_0_4
   + 0.0311569987559761 Z_638_2_0 + 0.0145555504125506 Z_638_2_1
   + 0.0234412625665402 Z_638_2_2 + 0.013526578591902 Z_638_2_3
   + 0.8173196096730312 Z_638_2_4 + 0.00690874107356041 Z_638_0_0
   + 0.00490967188054337 Z_638_0_1 + 0.5422451430502753 Z_638_0_2
   + 0.00743626325073469 Z_638_0_3 + 0.3385001807448862 Z_638_0_4
   + 0.4480849586178869 Z_638_1_0 + 0.0441353119525075 Z_638_1_1
   + 0.00279503565542998 Z_638_1_2 + 0.0179998849320588 Z_638_1_3
   + 0.3869848088421168 Z_638_1_4 + 0.000866939 Z_682_1_0
   + 0.00105353345809251 Z_682_1_1 + 0.7535558539064728 Z_682_1_2
   + 0.00234408226833809 Z_682_1_3 + 0.1421795913897942 Z_682_1_4
   + 0.7381160656360297 Z_682_0_0 + 0.0264670865127063 Z_682_0_1
   + 0.0198458680914146 Z_682_0_2 + 0.0476978916982931 Z_682_0_3
   + 0.0678730880615563 Z_682_0_4 + 0.00396182569888627 Z_406_2_0
   + 0.00182715124207084 Z_406_2_1 + 0.00358331584025465 Z_406_2_2
   + 0.6296551597101422 Z_406_2_3 + 0.260972547508646 Z_406_2_4
   + 0.0067156846900108 Z_406_1_0 + 0.00195099072510228 Z_406_1_1
   + 0.0336219449059845 Z_406_1_2 + 0.0439582329035559 Z_406_1_3
   + 0.8137531467753464 Z_406_1_4 + 3.2109972566802939e-04 Z_406_0_0
   + 1.5168375874192709e-04 Z_406_0_1 + 0.00450947215424279 Z_406_0_2
   + 0.0150415900944023 Z_406_0_3 + 0.8799761542669449 Z_406_0_4
   + 0.00704494520593464 Z_406_3_0 + 0.0476040290683402 Z_406_3_1
   + 0.0143497294805042 Z_406_3_2 + 0.6264550813708655 Z_406_3_3
   + 0.2045462148743556 Z_406_3_4 + 0.00396182569888627 Z_406_4_0
   + 0.00182715124207084 Z_406_4_1 + 0.00358331584025465 Z_406_4_2
   + 0.6296551597101422 Z_406_4_3 + 0.260972547508646 Z_406_4_4
Subject To
 constraint1_5711: Z_571_1_0 + Z_571_1_1 + Z_571_1_2 + Z_571_1_3
   + Z_571_1_4 <= 1
 constraint1_5712: Z_571_2_0 + Z_571_2_1 + Z_571_2_2 + Z_571_2_3
   + Z_571_2_4 <= 1
 constraint1_5710: Z_571_0_0 + Z_571_0_1 + Z_571_0_2 + Z_571_0_3
   + Z_571_0_4 <= 1
 constraint1_6697: Z_669_7_0 + Z_669_7_1 + Z_669_7_2 + Z_669_7_3
   + Z_669_7_4 <= 1
 constraint1_6696: Z_669_6_0 + Z_669_6_1 + Z_669_6_2 + Z_669_6_3
   + Z_669_6_4 <= 1
 constraint1_6691: Z_669_1_0 + Z_669_1_1 + Z_669_1_2 + Z_669_1_3
   + Z_669_1_4 <= 1
 constraint1_6690: Z_669_0_0 + Z_669_0_1 + Z_669_0_2 + Z_669_0_3
   + Z_669_0_4 <= 1
 constraint1_6694: Z_669_4_0 + Z_669_4_1 + Z_669_4_2 + Z_669_4_3
   + Z_669_4_4 <= 1
 constraint1_6692: Z_669_2_0 + Z_669_2_1 + Z_669_2_2 + Z_669_2_3
   + Z_669_2_4 <= 1
 constraint1_6698: Z_669_8_0 + Z_669_8_1 + Z_669_8_2 + Z_669_8_3
   + Z_669_8_4 <= 1
 constraint1_6699: Z_669_9_0 + Z_669_9_1 + Z_669_9_2 + Z_669_9_3
   + Z_669_9_4 <= 1
 constraint1_6695: Z_669_5_0 + Z_669_5_1 + Z_669_5_2 + Z_669_5_3
   + Z_669_5_4 <= 1
 constraint1_6693: Z_669_3_0 + Z_669_3_1 + Z_669_3_2 + Z_669_3_3
   + Z_669_3_4 <= 1
 constraint1_251: Z_25_1_0 + Z_25_1_1 + Z_25_1_2 + Z_25_1_3 + Z_25_1_4
   <= 1
 constraint1_250: Z_25_0_0 + Z_25_0_1 + Z_25_0_2 + Z_25_0_3 + Z_25_0_4
   <= 1
 constraint1_252: Z_25_2_0 + Z_25_2_1 + Z_25_2_2 + Z_25_2_3 + Z_25_2_4
   <= 1
 constraint1_4131: Z_413_1_0 + Z_413_1_1 + Z_413_1_2 + Z_413_1_3
   + Z_413_1_4 <= 1
 constraint1_4132: Z_413_2_0 + Z_413_2_1 + Z_413_2_2 + Z_413_2_3
   + Z_413_2_4 <= 1
 constraint1_4130: Z_413_0_0 + Z_413_0_1 + Z_413_0_2 + Z_413_0_3
   + Z_413_0_4 <= 1
 constraint1_4283: Z_428_3_0 + Z_428_3_1 + Z_428_3_2 + Z_428_3_3
   + Z_428_3_4 <= 1
 constraint1_4280: Z_428_0_0 + Z_428_0_1 + Z_428_0_2 + Z_428_0_3
   + Z_428_0_4 <= 1
 constraint1_4282: Z_428_2_0 + Z_428_2_1 + Z_428_2_2 + Z_428_2_3
   + Z_428_2_4 <= 1
 constraint1_4286: Z_428_6_0 + Z_428_6_1 + Z_428_6_2 + Z_428_6_3
   + Z_428_6_4 <= 1
 constraint1_4281: Z_428_1_0 + Z_428_1_1 + Z_428_1_2 + Z_428_1_3
   + Z_428_1_4 <= 1
 constraint1_4287: Z_428_7_0 + Z_428_7_1 + Z_428_7_2 + Z_428_7_3
   + Z_428_7_4 <= 1
 constraint1_4284: Z_428_4_0 + Z_428_4_1 + Z_428_4_2 + Z_428_4_3
   + Z_428_4_4 <= 1
 constraint1_4285: Z_428_5_0 + Z_428_5_1 + Z_428_5_2 + Z_428_5_3
   + Z_428_5_4 <= 1
 constraint1_7120: Z_712_0_0 + Z_712_0_1 + Z_712_0_2 + Z_712_0_3
   + Z_712_0_4 <= 1
 constraint1_3990: Z_399_0_0 + Z_399_0_1 + Z_399_0_2 + Z_399_0_3
   + Z_399_0_4 <= 1
 constraint1_461: Z_46_1_0 + Z_46_1_1 + Z_46_1_2 + Z_46_1_3 + Z_46_1_4
   <= 1
 constraint1_5140: Z_514_0_0 + Z_514_0_1 + Z_514_0_2 + Z_514_0_3
   + Z_514_0_4 <= 1
 constraint1_5141: Z_514_1_0 + Z_514_1_1 + Z_514_1_2 + Z_514_1_3
   + Z_514_1_4 <= 1
 constraint1_2880: Z_288_0_0 + Z_288_0_1 + Z_288_0_2 + Z_288_0_3
   + Z_288_0_4 <= 1
 constraint1_4620: Z_462_0_0 + Z_462_0_1 + Z_462_0_2 + Z_462_0_3
   + Z_462_0_4 <= 1
 constraint1_1220: Z_122_0_0 + Z_122_0_1 + Z_122_0_2 + Z_122_0_3
   + Z_122_0_4 <= 1
 constraint1_3680: Z_368_0_0 + Z_368_0_1 + Z_368_0_2 + Z_368_0_3
   + Z_368_0_4 <= 1
 constraint1_770: Z_77_0_0 + Z_77_0_1 + Z_77_0_2 + Z_77_0_3 + Z_77_0_4
   <= 1
 constraint1_1690: Z_169_0_0 + Z_169_0_1 + Z_169_0_2 + Z_169_0_3
   + Z_169_0_4 <= 1
 constraint1_6382: Z_638_2_0 + Z_638_2_1 + Z_638_2_2 + Z_638_2_3
   + Z_638_2_4 <= 1
 constraint1_6380: Z_638_0_0 + Z_638_0_1 + Z_638_0_2 + Z_638_0_3
   + Z_638_0_4 <= 1
 constraint1_6381: Z_638_1_0 + Z_638_1_1 + Z_638_1_2 + Z_638_1_3
   + Z_638_1_4 <= 1
 constraint1_6821: Z_682_1_0 + Z_682_1_1 + Z_682_1_2 + Z_682_1_3
   + Z_682_1_4 <= 1
 constraint1_6820: Z_682_0_0 + Z_682_0_1 + Z_682_0_2 + Z_682_0_3
   + Z_682_0_4 <= 1
 constraint1_4062: Z_406_2_0 + Z_406_2_1 + Z_406_2_2 + Z_406_2_3
   + Z_406_2_4 <= 1
 constraint1_4061: Z_406_1_0 + Z_406_1_1 + Z_406_1_2 + Z_406_1_3
   + Z_406_1_4 <= 1
 constraint1_4060: Z_406_0_0 + Z_406_0_1 + Z_406_0_2 + Z_406_0_3
   + Z_406_0_4 <= 1
 constraint1_4063: Z_406_3_0 + Z_406_3_1 + Z_406_3_2 + Z_406_3_3
   + Z_406_3_4 <= 1
 constraint1_4064: Z_406_4_0 + Z_406_4_1 + Z_406_4_2 + Z_406_4_3
   + Z_406_4_4 <= 1
 constraint2_5710: Z_571_1_0 + Z_571_2_0 + Z_571_0_0 <= 1
 constraint2_5711: Z_571_1_1 + Z_571_2_1 + Z_571_0_1 <= 1
 constraint2_5712: Z_571_1_2 + Z_571_2_2 + Z_571_0_2 <= 1
 constraint2_5713: Z_571_1_3 + Z_571_2_3 + Z_571_0_3 <= 1
 constraint2_6690: Z_669_7_0 + Z_669_6_0 + Z_669_1_0 + Z_669_0_0
   + Z_669_4_0 + Z_669_2_0 + Z_669_8_0 + Z_669_9_0 + Z_669_5_0 + Z_669_3_0
   <= 1
 constraint2_6691: Z_669_7_1 + Z_669_6_1 + Z_669_1_1 + Z_669_0_1
   + Z_669_4_1 + Z_669_2_1 + Z_669_8_1 + Z_669_9_1 + Z_669_5_1 + Z_669_3_1
   <= 1
 constraint2_6692: Z_669_7_2 + Z_669_6_2 + Z_669_1_2 + Z_669_0_2
   + Z_669_4_2 + Z_669_2_2 + Z_669_8_2 + Z_669_9_2 + Z_669_5_2 + Z_669_3_2
   <= 1
 constraint2_6693: Z_669_7_3 + Z_669_6_3 + Z_669_1_3 + Z_669_0_3
   + Z_669_4_3 + Z_669_2_3 + Z_669_8_3 + Z_669_9_3 + Z_669_5_3 + Z_669_3_3
   <= 1
 constraint2_250: Z_25_1_0 + Z_25_0_0 + Z_25_2_0 <= 1
 constraint2_251: Z_25_1_1 + Z_25_0_1 + Z_25_2_1 <= 1
 constraint2_252: Z_25_1_2 + Z_25_0_2 + Z_25_2_2 <= 1
 constraint2_253: Z_25_1_3 + Z_25_0_3 + Z_25_2_3 <= 1
 constraint2_4130: Z_413_1_0 + Z_413_2_0 + Z_413_0_0 <= 1
 constraint2_4131: Z_413_1_1 + Z_413_2_1 + Z_413_0_1 <= 1
 constraint2_4132: Z_413_1_2 + Z_413_2_2 + Z_413_0_2 <= 1
 constraint2_4133: Z_413_1_3 + Z_413_2_3 + Z_413_0_3 <= 1
 constraint2_6390: <= 1
 constraint2_6391: <= 1
 constraint2_6392: <= 1
 constraint2_6393: <= 1
 constraint2_4280: Z_428_3_0 + Z_428_0_0 + Z_428_2_0 + Z_428_6_0
   + Z_428_1_0 + Z_428_7_0 + Z_428_4_0 + Z_428_5_0 <= 1
 constraint2_4281: Z_428_3_1 + Z_428_0_1 + Z_428_2_1 + Z_428_6_1
   + Z_428_1_1 + Z_428_7_1 + Z_428_4_1 + Z_428_5_1 <= 1
 constraint2_4282: Z_428_3_2 + Z_428_0_2 + Z_428_2_2 + Z_428_6_2
   + Z_428_1_2 + Z_428_7_2 + Z_428_4_2 + Z_428_5_2 <= 1
 constraint2_4283: Z_428_3_3 + Z_428_0_3 + Z_428_2_3 + Z_428_6_3
   + Z_428_1_3 + Z_428_7_3 + Z_428_4_3 + Z_428_5_3 <= 1
 constraint2_7120: Z_712_0_0 <= 1
 constraint2_7121: Z_712_0_1 <= 1
 constraint2_7122: Z_712_0_2 <= 1
 constraint2_7123: Z_712_0_3 <= 1
 constraint2_3990: Z_399_0_0 <= 1
 constraint2_3991: Z_399_0_1 <= 1
 constraint2_3992: Z_399_0_2 <= 1
 constraint2_3993: Z_399_0_3 <= 1
 constraint2_460: Z_46_1_0 <= 1
 constraint2_461: Z_46_1_1 <= 1
 constraint2_462: Z_46_1_2 <= 1
 constraint2_463: Z_46_1_3 <= 1
 constraint2_1500: <= 1
 constraint2_1501: <= 1
 constraint2_1502: <= 1
 constraint2_1503: <= 1
 constraint2_5140: Z_514_0_0 + Z_514_1_0 <= 1
 constraint2_5141: Z_514_0_1 + Z_514_1_1 <= 1
 constraint2_5142: Z_514_0_2 + Z_514_1_2 <= 1
 constraint2_5143: Z_514_0_3 + Z_514_1_3 <= 1
 constraint2_2880: Z_288_0_0 <= 1
 constraint2_2881: Z_288_0_1 <= 1
 constraint2_2882: Z_288_0_2 <= 1
 constraint2_2883: Z_288_0_3 <= 1
 constraint2_4620: Z_462_0_0 <= 1
 constraint2_4621: Z_462_0_1 <= 1
 constraint2_4622: Z_462_0_2 <= 1
 constraint2_4623: Z_462_0_3 <= 1
 constraint2_1220: Z_122_0_0 <= 1
 constraint2_1221: Z_122_0_1 <= 1
 constraint2_1222: Z_122_0_2 <= 1
 constraint2_1223: Z_122_0_3 <= 1
 constraint2_7230: <= 1
 constraint2_7231: <= 1
 constraint2_7232: <= 1
 constraint2_7233: <= 1
 constraint2_3680: Z_368_0_0 <= 1
 constraint2_3681: Z_368_0_1 <= 1
 constraint2_3682: Z_368_0_2 <= 1
 constraint2_3683: Z_368_0_3 <= 1
 constraint2_770: Z_77_0_0 <= 1
 constraint2_771: Z_77_0_1 <= 1
 constraint2_772: Z_77_0_2 <= 1
 constraint2_773: Z_77_0_3 <= 1
 constraint2_1690: Z_169_0_0 <= 1
 constraint2_1691: Z_169_0_1 <= 1
 constraint2_1692: Z_169_0_2 <= 1
 constraint2_1693: Z_169_0_3 <= 1
 constraint2_5170: <= 1
 constraint2_5171: <= 1
 constraint2_5172: <= 1
 constraint2_5173: <= 1
 constraint2_6380: Z_638_2_0 + Z_638_0_0 + Z_638_1_0 <= 1
 constraint2_6381: Z_638_2_1 + Z_638_0_1 + Z_638_1_1 <= 1
 constraint2_6382: Z_638_2_2 + Z_638_0_2 + Z_638_1_2 <= 1
 constraint2_6383: Z_638_2_3 + Z_638_0_3 + Z_638_1_3 <= 1
 constraint2_6820: Z_682_1_0 + Z_682_0_0 <= 1
 constraint2_6821: Z_682_1_1 + Z_682_0_1 <= 1
 constraint2_6822: Z_682_1_2 + Z_682_0_2 <= 1
 constraint2_6823: Z_682_1_3 + Z_682_0_3 <= 1
 constraint2_4060: Z_406_2_0 + Z_406_1_0 + Z_406_0_0 + Z_406_3_0
   + Z_406_4_0 <= 1
 constraint2_4061: Z_406_2_1 + Z_406_1_1 + Z_406_0_1 + Z_406_3_1
   + Z_406_4_1 <= 1
 constraint2_4062: Z_406_2_2 + Z_406_1_2 + Z_406_0_2 + Z_406_3_2
   + Z_406_4_2 <= 1
 constraint2_4063: Z_406_2_3 + Z_406_1_3 + Z_406_0_3 + Z_406_3_3
   + Z_406_4_3 <= 1
Bounds
Binaries
 Z_571_1_0 Z_571_1_1 Z_571_1_2 Z_571_1_3 Z_571_1_4 Z_571_2_0 Z_571_2_1
 Z_571_2_2 Z_571_2_3 Z_571_2_4 Z_571_0_0 Z_571_0_1 Z_571_0_2 Z_571_0_3
 Z_571_0_4 Z_669_7_0 Z_669_7_1 Z_669_7_2 Z_669_7_3 Z_669_7_4 Z_669_6_0
 Z_669_6_1 Z_669_6_2 Z_669_6_3 Z_669_6_4 Z_669_1_0 Z_669_1_1 Z_669_1_2
 Z_669_1_3 Z_669_1_4 Z_669_0_0 Z_669_0_1 Z_669_0_2 Z_669_0_3 Z_669_0_4
 Z_669_4_0 Z_669_4_1 Z_669_4_2 Z_669_4_3 Z_669_4_4 Z_669_2_0 Z_669_2_1
 Z_669_2_2 Z_669_2_3 Z_669_2_4 Z_669_8_0 Z_669_8_1 Z_669_8_2 Z_669_8_3
 Z_669_8_4 Z_669_9_0 Z_669_9_1 Z_669_9_2 Z_669_9_3 Z_669_9_4 Z_669_5_0
 Z_669_5_1 Z_669_5_2 Z_669_5_3 Z_669_5_4 Z_669_3_0 Z_669_3_1 Z_669_3_2
 Z_669_3_3 Z_669_3_4 Z_25_1_0 Z_25_1_1 Z_25_1_2 Z_25_1_3 Z_25_1_4 Z_25_0_0
 Z_25_0_1 Z_25_0_2 Z_25_0_3 Z_25_0_4 Z_25_2_0 Z_25_2_1 Z_25_2_2 Z_25_2_3
 Z_25_2_4 Z_413_1_0 Z_413_1_1 Z_413_1_2 Z_413_1_3 Z_413_1_4 Z_413_2_0
 Z_413_2_1 Z_413_2_2 Z_413_2_3 Z_413_2_4 Z_413_0_0 Z_413_0_1 Z_413_0_2
 Z_413_0_3 Z_413_0_4 Z_428_3_0 Z_428_3_1 Z_428_3_2 Z_428_3_3 Z_428_3_4
 Z_428_0_0 Z_428_0_1 Z_428_0_2 Z_428_0_3 Z_428_0_4 Z_428_2_0 Z_428_2_1
 Z_428_2_2 Z_428_2_3 Z_428_2_4 Z_428_6_0 Z_428_6_1 Z_428_6_2 Z_428_6_3
 Z_428_6_4 Z_428_1_0 Z_428_1_1 Z_428_1_2 Z_428_1_3 Z_428_1_4 Z_428_7_0
 Z_428_7_1 Z_428_7_2 Z_428_7_3 Z_428_7_4 Z_428_4_0 Z_428_4_1 Z_428_4_2
 Z_428_4_3 Z_428_4_4 Z_428_5_0 Z_428_5_1 Z_428_5_2 Z_428_5_3 Z_428_5_4
 Z_712_0_0 Z_712_0_1 Z_712_0_2 Z_712_0_3 Z_712_0_4 Z_399_0_0 Z_399_0_1
 Z_399_0_2 Z_399_0_3 Z_399_0_4 Z_46_1_0 Z_46_1_1 Z_46_1_2 Z_46_1_3 Z_46_1_4
 Z_514_0_0 Z_514_0_1 Z_514_0_2 Z_514_0_3 Z_514_0_4 Z_514_1_0 Z_514_1_1
 Z_514_1_2 Z_514_1_3 Z_514_1_4 Z_288_0_0 Z_288_0_1 Z_288_0_2 Z_288_0_3
 Z_288_0_4 Z_462_0_0 Z_462_0_1 Z_462_0_2 Z_462_0_3 Z_462_0_4 Z_122_0_0
 Z_122_0_1 Z_122_0_2 Z_122_0_3 Z_122_0_4 Z_368_0_0 Z_368_0_1 Z_368_0_2
 Z_368_0_3 Z_368_0_4 Z_77_0_0 Z_77_0_1 Z_77_0_2 Z_77_0_3 Z_77_0_4 Z_169_0_0
 Z_169_0_1 Z_169_0_2 Z_169_0_3 Z_169_0_4 Z_638_2_0 Z_638_2_1 Z_638_2_2
 Z_638_2_3 Z_638_2_4 Z_638_0_0 Z_638_0_1 Z_638_0_2 Z_638_0_3 Z_638_0_4
 Z_638_1_0 Z_638_1_1 Z_638_1_2 Z_638_1_3 Z_638_1_4 Z_682_1_0 Z_682_1_1
 Z_682_1_2 Z_682_1_3 Z_682_1_4 Z_682_0_0 Z_682_0_1 Z_682_0_2 Z_682_0_3
 Z_682_0_4 Z_406_2_0 Z_406_2_1 Z_406_2_2 Z_406_2_3 Z_406_2_4 Z_406_1_0
 Z_406_1_1 Z_406_1_2 Z_406_1_3 Z_406_1_4 Z_406_0_0 Z_406_0_1 Z_406_0_2
 Z_406_0_3 Z_406_0_4 Z_406_3_0 Z_406_3_1 Z_406_3_2 Z_406_3_3 Z_406_3_4
 Z_406_4_0 Z_406_4_1 Z_406_4_2 Z_406_4_3 Z_406_4_4
End
