ilp_joint/output/mitosis_ilp.mps
NAME mitosis_srl_ilp
* Max problem is converted into Min one
ROWS
 N  OBJ
 L  constraint1_941
 L  constraint1_940
 L  constraint1_3300
 L  constraint1_590
 L  constraint1_2660
 L  constraint1_5410
 L  constraint1_1640
 L  constraint1_2320
 L  constraint1_2900
 L  constraint1_6040
 L  constraint1_90
 L  constraint1_1500
 L  constraint2_940
 L  constraint2_941
 L  constraint2_942
 L  constraint2_943
 L  constraint2_3300
 L  constraint2_3301
 L  constraint2_3302
 L  constraint2_3303
 L  constraint2_590
 L  constraint2_591
 L  constraint2_592
 L  constraint2_593
 L  constraint2_2660
 L  constraint2_2661
 L  constraint2_2662
 L  constraint2_2663
 L  constraint2_5410
 L  constraint2_5411
 L  constraint2_5412
 L  constraint2_5413
 L  constraint2_1640
 L  constraint2_1641
 L  constraint2_1642
 L  constraint2_1643
 L  constraint2_2320
 L  constraint2_2321
 L  constraint2_2322
 L  constraint2_2323
 L  constraint2_2900
 L  constraint2_2901
 L  constraint2_2902
 L  constraint2_2903
 L  constraint2_6040
 L  constraint2_6041
 L  constraint2_6042
 L  constraint2_6043
 L  constraint2_90
 L  constraint2_91
 L  constraint2_92
 L  constraint2_93
 L  constraint2_1500
 L  constraint2_1501
 L  constraint2_1502
 L  constraint2_1503
COLUMNS
    MARKER    'MARKER'                 'INTORG'
    Z_94_1_0  OBJ       -1.8264195320849442e-03
    Z_94_1_0  constraint1_941  1
    Z_94_1_0  constraint2_940  1
    Z_94_1_1  OBJ       -6.7838548856301584e-03
    Z_94_1_1  constraint1_941  1
    Z_94_1_1  constraint2_941  1
    Z_94_1_2  OBJ       -6.6652648433512252e-01
    Z_94_1_2  constraint1_941  1
    Z_94_1_2  constraint2_942  1
    Z_94_1_3  OBJ       -4.6907867603309450e-02
    Z_94_1_3  constraint1_941  1
    Z_94_1_3  constraint2_943  1
    Z_94_0_0  OBJ       -1.0688759189206436e-01
    Z_94_0_0  constraint1_940  1
    Z_94_0_0  constraint2_940  1
    Z_94_0_1  OBJ       -2.9515225319561023e-02
    Z_94_0_1  constraint1_940  1
    Z_94_0_1  constraint2_941  1
    Z_94_0_2  OBJ       -4.5414240900211032e-02
    Z_94_0_2  constraint1_940  1
    Z_94_0_2  constraint2_942  1
    Z_94_0_3  OBJ       -7.3236318498317562e-02
    Z_94_0_3  constraint1_940  1
    Z_94_0_3  constraint2_943  1
    Z_330_0_0  OBJ       -1.8214873964894473e-02
    Z_330_0_0  constraint1_3300  1
    Z_330_0_0  constraint2_3300  1
    Z_330_0_1  OBJ       -4.0549475275524997e-03
    Z_330_0_1  constraint1_3300  1
    Z_330_0_1  constraint2_3301  1
    Z_330_0_2  OBJ       -3.6210080556715506e-02
    Z_330_0_2  constraint1_3300  1
    Z_330_0_2  constraint2_3302  1
    Z_330_0_3  OBJ       -8.0729042899712444e-01
    Z_330_0_3  constraint1_3300  1
    Z_330_0_3  constraint2_3303  1
    Z_59_0_0  OBJ       -7.1091649729058464e-03
    Z_59_0_0  constraint1_590  1
    Z_59_0_0  constraint2_590  1
    Z_59_0_1  OBJ       -7.3087822805037892e-03
    Z_59_0_1  constraint1_590  1
    Z_59_0_1  constraint2_591  1
    Z_59_0_2  OBJ       -3.8730636569037424e-01
    Z_59_0_2  constraint1_590  1
    Z_59_0_2  constraint2_592  1
    Z_59_0_3  OBJ       -7.8953913102024464e-01
    Z_59_0_3  constraint1_590  1
    Z_59_0_3  constraint2_593  1
    Z_266_0_0  OBJ       -4.6548410556111700e-03
    Z_266_0_0  constraint1_2660  1
    Z_266_0_0  constraint2_2660  1
    Z_266_0_1  OBJ       -6.7468047260236478e-03
    Z_266_0_1  constraint1_2660  1
    Z_266_0_1  constraint2_2661  1
    Z_266_0_2  OBJ       -2.4314621893809563e-01
    Z_266_0_2  constraint1_2660  1
    Z_266_0_2  constraint2_2662  1
    Z_266_0_3  OBJ       -7.8671062655876056e-01
    Z_266_0_3  constraint1_2660  1
    Z_266_0_3  constraint2_2663  1
    Z_541_0_0  OBJ       -4.2554541040607519e-03
    Z_541_0_0  constraint1_5410  1
    Z_541_0_0  constraint2_5410  1
    Z_541_0_1  OBJ       -1.0260500296729215e-02
    Z_541_0_1  constraint1_5410  1
    Z_541_0_1  constraint2_5411  1
    Z_541_0_2  OBJ       -3.5202725386559702e-01
    Z_541_0_2  constraint1_5410  1
    Z_541_0_2  constraint2_5412  1
    Z_541_0_3  OBJ       -7.3254700353291047e-01
    Z_541_0_3  constraint1_5410  1
    Z_541_0_3  constraint2_5413  1
    Z_164_0_0  OBJ       -1.7260671025646213e-03
    Z_164_0_0  constraint1_1640  1
    Z_164_0_0  constraint2_1640  1
    Z_164_0_1  OBJ       -1.0887603831269866e-02
    Z_164_0_1  constraint1_1640  1
    Z_164_0_1  constraint2_1641  1
    Z_164_0_2  OBJ       -6.3499442705924591e-01
    Z_164_0_2  constraint1_1640  1
    Z_164_0_2  constraint2_1642  1
    Z_164_0_3  OBJ       -5.3702857984023822e-01
    Z_164_0_3  constraint1_1640  1
    Z_164_0_3  constraint2_1643  1
    Z_232_0_0  OBJ       -4.5923540652608174e-04
    Z_232_0_0  constraint1_2320  1
    Z_232_0_0  constraint2_2320  1
    Z_232_0_1  OBJ       -2.2289589280500333e-02
    Z_232_0_1  constraint1_2320  1
    Z_232_0_1  constraint2_2321  1
    Z_232_0_2  OBJ       -1.9916235510026928e-01
    Z_232_0_2  constraint1_2320  1
    Z_232_0_2  constraint2_2322  1
    Z_232_0_3  OBJ       -1.3675591346767366e-02
    Z_232_0_3  constraint1_2320  1
    Z_232_0_3  constraint2_2323  1
    Z_290_0_0  OBJ       -5.8709997182698542e-03
    Z_290_0_0  constraint1_2900  1
    Z_290_0_0  constraint2_2900  1
    Z_290_0_1  OBJ       -1.2532694259088584e-02
    Z_290_0_1  constraint1_2900  1
    Z_290_0_1  constraint2_2901  1
    Z_290_0_2  OBJ       -3.2894947206997305e-01
    Z_290_0_2  constraint1_2900  1
    Z_290_0_2  constraint2_2902  1
    Z_290_0_3  OBJ       -7.5895251741658198e-01
    Z_290_0_3  constraint1_2900  1
    Z_290_0_3  constraint2_2903  1
    Z_604_0_0  OBJ       -3.6726492633891274e-03
    Z_604_0_0  constraint1_6040  1
    Z_604_0_0  constraint2_6040  1
    Z_604_0_1  OBJ       -7.1666209585845450e-02
    Z_604_0_1  constraint1_6040  1
    Z_604_0_1  constraint2_6041  1
    Z_604_0_2  OBJ       -2.0662152377587467e-01
    Z_604_0_2  constraint1_6040  1
    Z_604_0_2  constraint2_6042  1
    Z_604_0_3  OBJ       -9.4372382111490623e-03
    Z_604_0_3  constraint1_6040  1
    Z_604_0_3  constraint2_6043  1
    Z_9_0_0   OBJ       -8.7902962635653420e-02
    Z_9_0_0   constraint1_90  1
    Z_9_0_0   constraint2_90  1
    Z_9_0_1   OBJ       -4.4890521278767574e-02
    Z_9_0_1   constraint1_90  1
    Z_9_0_1   constraint2_91  1
    Z_9_0_2   OBJ       -4.2167709086246286e-02
    Z_9_0_2   constraint1_90  1
    Z_9_0_2   constraint2_92  1
    Z_9_0_3   OBJ       -7.6569871407656087e-02
    Z_9_0_3   constraint1_90  1
    Z_9_0_3   constraint2_93  1
    Z_150_0_0  OBJ       -7.1091649729058464e-03
    Z_150_0_0  constraint1_1500  1
    Z_150_0_0  constraint2_1500  1
    Z_150_0_1  OBJ       -7.3087822805037892e-03
    Z_150_0_1  constraint1_1500  1
    Z_150_0_1  constraint2_1501  1
    Z_150_0_2  OBJ       -3.8730636569037424e-01
    Z_150_0_2  constraint1_1500  1
    Z_150_0_2  constraint2_1502  1
    Z_150_0_3  OBJ       -7.8953913102024464e-01
    Z_150_0_3  constraint1_1500  1
    Z_150_0_3  constraint2_1503  1
    MARKER    'MARKER'                 'INTEND'
RHS
    RHS1      constraint1_941  1
    RHS1      constraint1_940  1
    RHS1      constraint1_3300  1
    RHS1      constraint1_590  1
    RHS1      constraint1_2660  1
    RHS1      constraint1_5410  1
    RHS1      constraint1_1640  1
    RHS1      constraint1_2320  1
    RHS1      constraint1_2900  1
    RHS1      constraint1_6040  1
    RHS1      constraint1_90  1
    RHS1      constraint1_1500  1
    RHS1      constraint2_940  1
    RHS1      constraint2_941  1
    RHS1      constraint2_942  1
    RHS1      constraint2_943  1
    RHS1      constraint2_3300  1
    RHS1      constraint2_3301  1
    RHS1      constraint2_3302  1
    RHS1      constraint2_3303  1
    RHS1      constraint2_590  1
    RHS1      constraint2_591  1
    RHS1      constraint2_592  1
    RHS1      constraint2_593  1
    RHS1      constraint2_2660  1
    RHS1      constraint2_2661  1
    RHS1      constraint2_2662  1
    RHS1      constraint2_2663  1
    RHS1      constraint2_5410  1
    RHS1      constraint2_5411  1
    RHS1      constraint2_5412  1
    RHS1      constraint2_5413  1
    RHS1      constraint2_1640  1
    RHS1      constraint2_1641  1
    RHS1      constraint2_1642  1
    RHS1      constraint2_1643  1
    RHS1      constraint2_2320  1
    RHS1      constraint2_2321  1
    RHS1      constraint2_2322  1
    RHS1      constraint2_2323  1
    RHS1      constraint2_2900  1
    RHS1      constraint2_2901  1
    RHS1      constraint2_2902  1
    RHS1      constraint2_2903  1
    RHS1      constraint2_6040  1
    RHS1      constraint2_6041  1
    RHS1      constraint2_6042  1
    RHS1      constraint2_6043  1
    RHS1      constraint2_90  1
    RHS1      constraint2_91  1
    RHS1      constraint2_92  1
    RHS1      constraint2_93  1
    RHS1      constraint2_1500  1
    RHS1      constraint2_1501  1
    RHS1      constraint2_1502  1
    RHS1      constraint2_1503  1
BOUNDS
 UP BND1      Z_94_1_0  1
 UP BND1      Z_94_1_1  1
 UP BND1      Z_94_1_2  1
 UP BND1      Z_94_1_3  1
 UP BND1      Z_94_0_0  1
 UP BND1      Z_94_0_1  1
 UP BND1      Z_94_0_2  1
 UP BND1      Z_94_0_3  1
 UP BND1      Z_330_0_0  1
 UP BND1      Z_330_0_1  1
 UP BND1      Z_330_0_2  1
 UP BND1      Z_330_0_3  1
 UP BND1      Z_59_0_0  1
 UP BND1      Z_59_0_1  1
 UP BND1      Z_59_0_2  1
 UP BND1      Z_59_0_3  1
 UP BND1      Z_266_0_0  1
 UP BND1      Z_266_0_1  1
 UP BND1      Z_266_0_2  1
 UP BND1      Z_266_0_3  1
 UP BND1      Z_541_0_0  1
 UP BND1      Z_541_0_1  1
 UP BND1      Z_541_0_2  1
 UP BND1      Z_541_0_3  1
 UP BND1      Z_164_0_0  1
 UP BND1      Z_164_0_1  1
 UP BND1      Z_164_0_2  1
 UP BND1      Z_164_0_3  1
 UP BND1      Z_232_0_0  1
 UP BND1      Z_232_0_1  1
 UP BND1      Z_232_0_2  1
 UP BND1      Z_232_0_3  1
 UP BND1      Z_290_0_0  1
 UP BND1      Z_290_0_1  1
 UP BND1      Z_290_0_2  1
 UP BND1      Z_290_0_3  1
 UP BND1      Z_604_0_0  1
 UP BND1      Z_604_0_1  1
 UP BND1      Z_604_0_2  1
 UP BND1      Z_604_0_3  1
 UP BND1      Z_9_0_0   1
 UP BND1      Z_9_0_1   1
 UP BND1      Z_9_0_2   1
 UP BND1      Z_9_0_3   1
 UP BND1      Z_150_0_0  1
 UP BND1      Z_150_0_1  1
 UP BND1      Z_150_0_2  1
 UP BND1      Z_150_0_3  1
QUADOBJ
    Z_94_1_0  Z_330_0_0  -1.1194189769401007e-02
    Z_94_1_0  Z_59_0_0  -3.9915232124834877e-03
    Z_94_1_0  Z_164_0_0  -1.1470988068419941e-04
    Z_94_1_0  Z_290_0_0  -1.8051378608289835e-03
    Z_94_1_1  Z_330_0_1  -1.1194189769401007e-02
    Z_94_1_1  Z_59_0_1  -3.9915232124834877e-03
    Z_94_1_1  Z_164_0_1  -1.1470988068419941e-04
    Z_94_1_1  Z_290_0_1  -1.8051378608289835e-03
    Z_94_1_2  Z_330_0_2  -1.1194189769401007e-02
    Z_94_1_2  Z_59_0_2  -3.9915232124834877e-03
    Z_94_1_2  Z_164_0_2  -1.1470988068419941e-04
    Z_94_1_2  Z_290_0_2  -1.8051378608289835e-03
    Z_94_1_3  Z_330_0_3  -1.1194189769401007e-02
    Z_94_1_3  Z_59_0_3  -3.9915232124834877e-03
    Z_94_1_3  Z_164_0_3  -1.1470988068419941e-04
    Z_94_1_3  Z_290_0_3  -1.8051378608289835e-03
    Z_94_0_0  Z_330_0_0  -6.5303364989749257e-02
    Z_94_0_0  Z_59_0_0  -1.5374159422799245e-02
    Z_94_0_0  Z_266_0_0  -6.7962855336326589e-03
    Z_94_0_0  Z_541_0_0  -2.5007221080881721e-02
    Z_94_0_0  Z_164_0_0  -1.6483556082315970e-02
    Z_94_0_0  Z_290_0_0  -3.3775545121929547e-02
    Z_94_0_0  Z_9_0_0   -1.6483556082315970e-02
    Z_94_0_0  Z_150_0_0  -2.1745317930250384e-02
    Z_94_0_1  Z_330_0_1  -6.5303364989749257e-02
    Z_94_0_1  Z_59_0_1  -1.5374159422799245e-02
    Z_94_0_1  Z_266_0_1  -6.7962855336326589e-03
    Z_94_0_1  Z_541_0_1  -2.5007221080881721e-02
    Z_94_0_1  Z_164_0_1  -1.6483556082315970e-02
    Z_94_0_1  Z_290_0_1  -3.3775545121929547e-02
    Z_94_0_1  Z_9_0_1   -1.6483556082315970e-02
    Z_94_0_1  Z_150_0_1  -2.1745317930250384e-02
    Z_94_0_2  Z_330_0_2  -6.5303364989749257e-02
    Z_94_0_2  Z_59_0_2  -1.5374159422799245e-02
    Z_94_0_2  Z_266_0_2  -6.7962855336326589e-03
    Z_94_0_2  Z_541_0_2  -2.5007221080881721e-02
    Z_94_0_2  Z_164_0_2  -1.6483556082315970e-02
    Z_94_0_2  Z_290_0_2  -3.3775545121929547e-02
    Z_94_0_2  Z_9_0_2   -1.6483556082315970e-02
    Z_94_0_2  Z_150_0_2  -2.1745317930250384e-02
    Z_94_0_3  Z_330_0_3  -6.5303364989749257e-02
    Z_94_0_3  Z_59_0_3  -1.5374159422799245e-02
    Z_94_0_3  Z_266_0_3  -6.7962855336326589e-03
    Z_94_0_3  Z_541_0_3  -2.5007221080881721e-02
    Z_94_0_3  Z_164_0_3  -1.6483556082315970e-02
    Z_94_0_3  Z_290_0_3  -3.3775545121929547e-02
    Z_94_0_3  Z_9_0_3   -1.6483556082315970e-02
    Z_94_0_3  Z_150_0_3  -2.1745317930250384e-02
    Z_330_0_0  Z_59_0_0  -1.0170364452269309e-01
    Z_330_0_0  Z_266_0_0  -5.1194035828313923e-02
    Z_330_0_0  Z_541_0_0  -9.9256670988783352e-02
    Z_330_0_0  Z_164_0_0  -4.4128995177616780e-02
    Z_330_0_0  Z_290_0_0  -7.3322237800765966e-02
    Z_330_0_0  Z_9_0_0   -1.1607893295132303e-02
    Z_330_0_0  Z_150_0_0  -8.7623405731158968e-02
    Z_330_0_1  Z_59_0_1  -1.0170364452269309e-01
    Z_330_0_1  Z_266_0_1  -5.1194035828313923e-02
    Z_330_0_1  Z_541_0_1  -9.9256670988783352e-02
    Z_330_0_1  Z_164_0_1  -4.4128995177616780e-02
    Z_330_0_1  Z_290_0_1  -7.3322237800765966e-02
    Z_330_0_1  Z_9_0_1   -1.1607893295132303e-02
    Z_330_0_1  Z_150_0_1  -8.7623405731158968e-02
    Z_330_0_2  Z_59_0_2  -1.0170364452269309e-01
    Z_330_0_2  Z_266_0_2  -5.1194035828313923e-02
    Z_330_0_2  Z_541_0_2  -9.9256670988783352e-02
    Z_330_0_2  Z_164_0_2  -4.4128995177616780e-02
    Z_330_0_2  Z_290_0_2  -7.3322237800765966e-02
    Z_330_0_2  Z_9_0_2   -1.1607893295132303e-02
    Z_330_0_2  Z_150_0_2  -8.7623405731158968e-02
    Z_330_0_3  Z_59_0_3  -1.0170364452269309e-01
    Z_330_0_3  Z_266_0_3  -5.1194035828313923e-02
    Z_330_0_3  Z_541_0_3  -9.9256670988783352e-02
    Z_330_0_3  Z_164_0_3  -4.4128995177616780e-02
    Z_330_0_3  Z_290_0_3  -7.3322237800765966e-02
    Z_330_0_3  Z_9_0_3   -1.1607893295132303e-02
    Z_330_0_3  Z_150_0_3  -8.7623405731158968e-02
    Z_59_0_0  Z_266_0_0  -3.8075046889142962e-02
    Z_59_0_0  Z_541_0_0  -6.3243059007803942e-02
    Z_59_0_0  Z_164_0_0  -4.4793404540238876e-02
    Z_59_0_0  Z_290_0_0  -9.5145275765157758e-02
    Z_59_0_0  Z_9_0_0   -2.9894120005593303e-02
    Z_59_0_0  Z_150_0_0  -1.4065165308743297e-01
    Z_59_0_1  Z_266_0_1  -3.8075046889142962e-02
    Z_59_0_1  Z_541_0_1  -6.3243059007803942e-02
    Z_59_0_1  Z_164_0_1  -4.4793404540238876e-02
    Z_59_0_1  Z_290_0_1  -9.5145275765157758e-02
    Z_59_0_1  Z_9_0_1   -2.9894120005593303e-02
    Z_59_0_1  Z_150_0_1  -1.4065165308743297e-01
    Z_59_0_2  Z_266_0_2  -3.8075046889142962e-02
    Z_59_0_2  Z_541_0_2  -6.3243059007803942e-02
    Z_59_0_2  Z_164_0_2  -4.4793404540238876e-02
    Z_59_0_2  Z_290_0_2  -9.5145275765157758e-02
    Z_59_0_2  Z_9_0_2   -2.9894120005593303e-02
    Z_59_0_2  Z_150_0_2  -1.4065165308743297e-01
    Z_59_0_3  Z_266_0_3  -3.8075046889142962e-02
    Z_59_0_3  Z_541_0_3  -6.3243059007803942e-02
    Z_59_0_3  Z_164_0_3  -4.4793404540238876e-02
    Z_59_0_3  Z_290_0_3  -9.5145275765157758e-02
    Z_59_0_3  Z_9_0_3   -2.9894120005593303e-02
    Z_59_0_3  Z_150_0_3  -1.4065165308743297e-01
    Z_266_0_0  Z_541_0_0  -1.2425993889911692e-01
    Z_266_0_0  Z_164_0_0  -5.7086757897075291e-02
    Z_266_0_0  Z_232_0_0  -4.0269559500328721e-04
    Z_266_0_0  Z_290_0_0  -4.2657823045945308e-02
    Z_266_0_0  Z_9_0_0   -2.6907909061335604e-02
    Z_266_0_0  Z_150_0_0  -1.3268513049407071e-01
    Z_266_0_1  Z_541_0_1  -1.2425993889911692e-01
    Z_266_0_1  Z_164_0_1  -5.7086757897075291e-02
    Z_266_0_1  Z_232_0_1  -4.0269559500328721e-04
    Z_266_0_1  Z_290_0_1  -4.2657823045945308e-02
    Z_266_0_1  Z_9_0_1   -2.6907909061335604e-02
    Z_266_0_1  Z_150_0_1  -1.3268513049407071e-01
    Z_266_0_2  Z_541_0_2  -1.2425993889911692e-01
    Z_266_0_2  Z_164_0_2  -5.7086757897075291e-02
    Z_266_0_2  Z_232_0_2  -4.0269559500328721e-04
    Z_266_0_2  Z_290_0_2  -4.2657823045945308e-02
    Z_266_0_2  Z_9_0_2   -2.6907909061335604e-02
    Z_266_0_2  Z_150_0_2  -1.3268513049407071e-01
    Z_266_0_3  Z_541_0_3  -1.2425993889911692e-01
    Z_266_0_3  Z_164_0_3  -5.7086757897075291e-02
    Z_266_0_3  Z_232_0_3  -4.0269559500328721e-04
    Z_266_0_3  Z_290_0_3  -4.2657823045945308e-02
    Z_266_0_3  Z_9_0_3   -2.6907909061335604e-02
    Z_266_0_3  Z_150_0_3  -1.3268513049407071e-01
    Z_541_0_0  Z_164_0_0  -5.7086757897075291e-02
    Z_541_0_0  Z_290_0_0  -8.7922266698115509e-02
    Z_541_0_0  Z_9_0_0   -3.6458720028519104e-02
    Z_541_0_0  Z_150_0_0  -1.3268513049407071e-01
    Z_541_0_1  Z_164_0_1  -5.7086757897075291e-02
    Z_541_0_1  Z_290_0_1  -8.7922266698115509e-02
    Z_541_0_1  Z_9_0_1   -3.6458720028519104e-02
    Z_541_0_1  Z_150_0_1  -1.3268513049407071e-01
    Z_541_0_2  Z_164_0_2  -5.7086757897075291e-02
    Z_541_0_2  Z_290_0_2  -8.7922266698115509e-02
    Z_541_0_2  Z_9_0_2   -3.6458720028519104e-02
    Z_541_0_2  Z_150_0_2  -1.3268513049407071e-01
    Z_541_0_3  Z_164_0_3  -5.7086757897075291e-02
    Z_541_0_3  Z_290_0_3  -8.7922266698115509e-02
    Z_541_0_3  Z_9_0_3   -3.6458720028519104e-02
    Z_541_0_3  Z_150_0_3  -1.3268513049407071e-01
    Z_164_0_0  Z_232_0_0  -1.9999999999999996e-01
    Z_164_0_0  Z_290_0_0  -9.3216749441005553e-02
    Z_164_0_0  Z_9_0_0   -3.8822985208193321e-02
    Z_164_0_0  Z_150_0_0  -9.1724687744369593e-02
    Z_164_0_1  Z_232_0_1  -1.9999999999999996e-01
    Z_164_0_1  Z_290_0_1  -9.3216749441005553e-02
    Z_164_0_1  Z_9_0_1   -3.8822985208193321e-02
    Z_164_0_1  Z_150_0_1  -9.1724687744369593e-02
    Z_164_0_2  Z_232_0_2  -1.9999999999999996e-01
    Z_164_0_2  Z_290_0_2  -9.3216749441005553e-02
    Z_164_0_2  Z_9_0_2   -3.8822985208193321e-02
    Z_164_0_2  Z_150_0_2  -9.1724687744369593e-02
    Z_164_0_3  Z_232_0_3  -1.9999999999999996e-01
    Z_164_0_3  Z_290_0_3  -9.3216749441005553e-02
    Z_164_0_3  Z_9_0_3   -3.8822985208193321e-02
    Z_164_0_3  Z_150_0_3  -9.1724687744369593e-02
    Z_232_0_0  Z_290_0_0  -1.9999999999999996e-01
    Z_232_0_1  Z_290_0_1  -1.9999999999999996e-01
    Z_232_0_2  Z_290_0_2  -1.9999999999999996e-01
    Z_232_0_3  Z_290_0_3  -1.9999999999999996e-01
    Z_290_0_0  Z_9_0_0   -4.6567297824176908e-02
    Z_290_0_0  Z_150_0_0  -9.1645738748236727e-02
    Z_290_0_1  Z_9_0_1   -4.6567297824176908e-02
    Z_290_0_1  Z_150_0_1  -9.1645738748236727e-02
    Z_290_0_2  Z_9_0_2   -4.6567297824176908e-02
    Z_290_0_2  Z_150_0_2  -9.1645738748236727e-02
    Z_290_0_3  Z_9_0_3   -4.6567297824176908e-02
    Z_290_0_3  Z_150_0_3  -9.1645738748236727e-02
    Z_9_0_0   Z_150_0_0  -3.0711053721960188e-02
    Z_9_0_1   Z_150_0_1  -3.0711053721960188e-02
    Z_9_0_2   Z_150_0_2  -3.0711053721960188e-02
    Z_9_0_3   Z_150_0_3  -3.0711053721960188e-02
ENDATA
