ilp_joint/output/mitosis_ilp.sol
# Solution for model mitosis_srl_ilp
# Objective value = 3.2513425426961771e+00
Z_54_1_0 1
Z_54_1_1 0
Z_54_1_2 0
Z_54_1_3 0
Z_54_1_4 0
Z_54_0_0 0
Z_54_0_1 0
Z_54_0_2 1
Z_54_0_3 0
Z_54_0_4 0
Z_54_2_0 0
Z_54_2_1 0
Z_54_2_2 0
Z_54_2_3 1
Z_54_2_4 0
Z_150_0_0 0
Z_150_0_1 0
Z_150_0_2 0
Z_150_0_3 1
Z_150_0_4 0
